0 1
0 3
1 4
1 6
1 8
1 10
3 11
2 12
0 13
0 14
1 15
2 14
2 13
4 13
4 12
5 11
6 12
6 13
7 13
9 13
10 12
11 13
12 13
12 14
13 15
12 16
12 17
11 18
11 19
11 20
12 18
14 18
15 18
14 17
14 16
15 16
16 17
17 18
18 19
18 20
18 21
17 22
18 22
19 23
18 24
17 24
17 23
15 23
15 24
14 25
12 26
12 25
13 24
12 23
12 22
13 23
14 22
15 22
16 21
17 20
16 19
15 20
14 21
14 20
13 19
13 20
12 21
11 22
10 21
10 20
9 19
8 18
8 17
9 18
10 17
11 16
11 15
10 14
9 14
9 15
9 16
7 14
7 15
7 16
7 17
6 18
5 17
5 16
5 15
5 14
4 14
3 15
3 16
3 17
1 17
1 16
0 16
0 18
0 19
2 18
2 19
2 20
1 21
0 20
0 22
0 23
2 22
1 23
1 24
0 25
1 26
0 27
1 28
1 30
1 32
0 34
1 35
1 36
0 38
1 39
1 40
2 41
0 41
1 42
0 43
1 44
1 45
0 47
0 50
1 52
1 54
0 56
0 61
1 63
1 65
0 68
1 70
1 72
0 74
2 75
2 73
4 74
4 76
3 77
3 79
1 76
1 78
1 80
1 82
1 85
1 87
2 91
1 94
4 93
4 96
8 94
8 96
7 103
6 105
4 106
4 108
1 109
1 111
3 110
6 109
7 107
9 105
10 107
12 109
11 111
10 109
8 109
8 111
5 111
5 113
3 112
1 114
3 114
5 115
5 120
4 119
2 119
4 117
3 116
1 116
1 118
0 121
2 121
4 121
3 122
3 124
1 123
1 125
1 127
3 126
5 123
5 125
5 127
9 127
8 126
7 125
7 123
7 121
9 121
11 120
11 122
9 123
10 124
11 125
11 127
13 126
16 126
18 127
18 125
20 126
22 127
21 124
20 123
19 122
18 120
17 122
17 124
15 124
13 124
13 122
13 120
15 122
15 120
13 118
15 118
17 119
17 117
19 117
17 115
15 116
13 116
11 117
9 117
10 119
8 119
6 118
7 117
7 115
7 113
9 112
9 114
11 115
11 113
13 112
13 114
15 114
15 112
14 110
14 108
12 107
12 105
10 103
10 101
12 103
13 101
12 99
14 100
15 101
16 102
17 104
15 103
14 104
15 106
16 105
17 106
18 105
19 103
18 102
17 100
16 99
15 98
14 97
16 96
17 98
18 97
20 98
20 92
26 96
28 99
25 99
23 99
21 98
21 99
19 100
19 101
21 102
20 104
20 105
20 106
21 107
18 107
17 108
16 108
16 110
17 112
18 113
18 111
19 110
18 109
19 108
20 109
22 109
22 110
20 111
19 112
21 112
21 113
20 114
19 114
19 115
20 116
21 116
21 115
22 114
23 115
24 113
23 112
26 111
26 113
28 112
30 112
29 114
30 115
31 113
33 112
36 113
38 114
34 115
33 114
32 116
33 117
31 118
30 119
29 120
29 118
28 116
27 114
26 115
26 117
26 118
26 119
24 118
25 116
24 115
23 116
23 117
22 119
22 118
21 117
20 118
21 119
20 120
21 121
22 122
23 121
23 120
24 119
25 120
25 121
24 122
23 123
23 124
23 125
24 126
24 127
26 127
26 126
28 126
28 125
27 124
25 125
25 124
25 123
26 122
27 123
27 121
27 120
29 122
31 121
31 123
30 123
30 124
31 125
29 126
29 127
32 126
36 126
37 125
38 124
40 124
37 123
38 121
37 120
36 119
35 120
34 119
35 117
36 116
37 118
38 117
40 114
41 116
40 118
39 119
40 122
41 121
41 120
43 118
44 119
43 120
43 122
46 123
45 121
46 120
48 120
48 121
49 121
49 123
50 121
51 121
52 121
53 122
57 123
57 122
59 122
59 121
61 120
61 121
62 121
64 121
65 121
66 122
66 123
65 125
64 125
63 124
64 123
64 122
62 122
61 123
59 123
59 124
60 125
61 124
62 125
63 126
64 127
66 127
68 126
69 127
71 127
72 126
71 125
71 124
71 123
72 123
72 122
72 121
73 122
73 124
73 125
73 127
74 127
76 127
76 126
76 125
77 124
78 124
79 123
78 123
77 123
76 123
77 122
76 122
75 123
75 124
75 125
75 126
74 125
74 123
74 122
74 121
75 121
76 121
76 120
74 120
72 120
70 120
69 121
70 122
70 123
69 124
69 125
67 125
68 124
68 123
68 122
67 122
67 121
64 120
63 120
62 119
60 119
59 120
58 119
56 119
57 120
57 121
55 121
54 120
55 117
53 119
50 119
52 117
50 116
48 118
46 118
47 115
45 116
43 115
43 103
42 101
41 101
41 100
41 99
39 100
40 98
42 96
44 94
42 94
40 96
38 96
36 95
34 94
33 90
30 93
28 93
25 90
29 88
30 84
33 85
35 83
36 80
37 82
39 84
36 87
36 90
38 89
39 86
41 85
41 87
42 88
41 89
40 91
39 93
40 94
42 92
44 92
43 90
44 88
44 86
43 85
42 83
41 82
39 80
40 78
37 77
38 75
36 73
39 72
38 70
40 69
39 67
40 65
39 63
37 64
36 67
35 68
32 69
34 71
30 73
32 74
34 76
33 78
33 81
30 81
30 78
28 75
28 71
29 68
32 66
32 62
34 61
37 61
37 59
38 57
39 58
40 58
39 60
40 61
41 61
42 62
42 63
43 64
45 66
47 66
48 68
49 70
50 71
50 68
52 67
50 66
51 66
52 65
51 64
47 64
45 63
47 61
48 60
49 62
50 60
51 61
52 62
52 59
51 58
50 58
49 59
46 59
47 58
48 56
49 56
49 57
51 56
52 57
54 58
56 57
55 63
54 64
54 66
55 67
57 67
57 65
58 66
60 67
62 69
63 70
64 71
60 69
60 71
59 73
57 70
55 70
53 69
53 71
56 74
58 76
59 78
58 80
61 81
58 82
53 83
56 80
54 74
51 74
49 73
48 72
47 72
47 73
48 74
47 75
47 76
44 73
45 71
42 70
41 73
42 74
40 75
42 76
44 77
46 78
43 79
42 78
41 80
43 81
44 83
46 83
46 81
47 80
48 83
46 85
46 87
49 87
52 89
58 89
60 88
63 89
63 87
62 86
64 84
64 80
67 81
67 79
69 78
71 78
68 80
70 81
72 83
66 89
66 91
65 90
64 91
65 93
69 96
67 96
65 98
71 110
73 109
75 108
78 108
79 106
83 108
85 111
86 113
84 113
85 115
84 117
87 115
88 116
86 117
86 120
85 119
83 119
80 118
81 119
82 120
82 121
84 121
84 123
81 123
80 124
81 125
80 126
80 125
79 125
78 125
78 126
77 126
78 127
79 127
81 127
81 126
83 125
85 126
85 124
86 122
88 122
87 124
87 126
89 124
89 126
91 126
93 126
95 127
95 125
93 124
91 124
90 122
92 122
94 122
95 123
94 120
92 120
90 120
88 120
88 118
90 117
91 118
91 115
93 114
93 116
93 118
95 118
96 120
97 121
98 122
97 124
97 126
99 126
101 126
102 127
105 126
107 126
109 126
110 127
112 127
114 127
116 126
117 127
119 125
120 124
122 124
123 122
126 122
126 120
127 121
130 120
132 119
131 118
131 116
130 115
130 114
132 114
134 115
134 114
134 113
136 113
148 125
147 127
149 127
149 124
149 122
137 111
136 110
136 108
137 108
138 109
139 107
140 108
141 106
142 105
140 106
138 106
139 104
137 104
137 105
136 106
134 106
134 105
135 104
135 103
135 102
137 102
138 101
139 102
140 103
141 104
143 103
142 102
141 101
143 99
140 100
139 99
138 98
136 97
136 95
134 92
133 91
135 87
136 83
149 66
149 64
148 63
148 62
149 60
147 54
145 54
144 55
143 54
144 52
148 27
145 26
147 24
149 23
146 23
145 22
144 24
143 23
144 21
144 19
145 18
143 17
144 15
142 16
142 15
141 14
142 13
143 14
144 13
143 12
142 12
142 11
141 10
142 10
144 9
144 10
144 11
145 12
145 14
145 16
145 17
146 17
146 19
146 20
147 21
148 22
148 20
149 19
148 18
148 17
149 16
148 16
147 15
147 14
149 14
148 13
146 13
146 12
145 11
146 10
147 9
148 10
147 11
148 11
149 12
149 10
149 9
149 7
148 7
148 6
149 5
149 3
148 2
149 1
148 0
147 1
146 0
144 1
143 0
141 0
142 1
141 2
142 3
141 4
141 5
143 4
143 2
145 2
146 3
147 4
147 5
146 6
146 7
148 8
146 8
145 9
144 8
144 7
144 6
145 5
145 4
143 5
142 6
142 7
142 8
142 9
141 8
140 7
140 6
139 6
139 5
138 5
139 4
140 3
140 1
139 0
138 1
139 2
138 3
137 4
136 3
137 2
137 0
135 0
133 0
131 0
129 0
126 0
124 1
122 0
123 2
122 4
121 2
121 3
120 5
120 4
119 3
118 2
120 1
119 0
117 1
116 2
117 4
116 5
118 5
118 6
119 7
117 8
117 9
116 10
115 9
114 10
114 11
113 12
112 13
111 14
111 15
110 15
109 14
108 13
107 12
106 13
105 12
105 11
106 10
105 9
105 8
107 8
107 7
108 6
109 8
109 7
110 5
111 6
111 7
111 8
111 9
109 9
107 9
108 10
108 11
109 12
110 13
110 11
110 10
111 12
112 11
112 10
113 9
113 8
115 8
116 7
115 6
114 7
113 6
112 5
114 5
114 4
113 3
114 2
114 0
112 1
112 2
111 4
110 3
109 2
109 4
107 4
107 2
105 2
105 3
107 5
105 6
105 7
103 7
103 8
103 9
102 10
104 10
103 11
103 12
102 13
102 14
101 15
102 16
103 15
104 13
105 14
105 15
104 16
103 17
104 18
103 19
102 18
101 19
101 20
102 21
103 20
104 21
105 20
105 19
106 18
105 17
106 16
106 15
107 14
108 15
108 16
107 17
109 18
109 19
110 20
111 20
112 19
111 18
109 17
110 16
111 17
113 18
113 17
114 16
112 16
113 15
113 14
114 13
115 12
116 11
117 12
118 11
118 10
119 9
119 8
120 7
121 6
122 6
124 4
125 3
126 2
127 1
128 2
130 1
131 2
130 3
132 3
133 2
133 1
136 1
135 2
134 3
134 4
136 5
137 6
138 7
139 8
140 9
139 9
139 10
140 11
140 12
139 12
140 13
140 15
140 16
141 18
143 18
142 19
142 21
142 22
141 24
143 27
140 27
139 24
137 27
137 25
135 24
134 26
135 27
135 29
136 30
138 30
139 32
140 34
135 32
133 32
132 31
133 30
133 28
131 26
132 24
138 22
140 21
139 19
136 18
136 16
138 15
138 13
138 12
136 13
136 14
135 17
133 16
133 17
133 18
135 19
134 21
133 20
132 19
131 18
129 18
130 17
129 16
128 15
127 16
126 15
126 14
128 14
130 14
130 15
132 15
132 14
134 14
134 13
136 12
135 12
133 12
132 12
132 13
130 13
130 12
131 11
129 11
128 12
128 13
127 11
126 12
126 13
124 13
124 11
120 11
119 12
118 13
116 13
115 14
115 15
117 14
117 15
118 16
119 15
119 14
121 17
121 16
122 15
122 14
124 14
124 15
125 16
125 17
123 16
123 17
122 18
122 20
124 19
124 18
126 18
127 18
125 20
126 20
128 19
129 20
129 21
127 21
127 23
130 22
130 24
129 25
128 24
127 26
126 25
125 22
124 21
124 23
122 24
121 23
120 22
121 21
119 20
120 19
120 18
119 17
119 18
118 19
117 17
116 16
117 18
116 19
115 18
115 17
114 19
115 20
117 20
117 21
118 22
118 24
120 26
123 27
124 25
125 27
126 29
128 29
128 27
129 28
131 28
131 30
129 30
127 31
129 32
130 33
130 34
132 33
132 35
133 37
134 36
134 34
136 35
135 40
132 40
131 38
131 36
129 35
128 34
127 33
126 32
125 31
118 29
116 29
116 24
116 22
114 22
114 21
113 20
112 22
110 22
111 23
113 24
114 25
112 26
113 29
113 33
111 33
109 32
107 33
109 34
111 35
110 37
108 36
109 38
108 40
110 41
107 42
105 41
104 40
103 39
105 38
106 39
107 37
105 36
106 35
105 34
105 32
102 32
101 33
103 34
103 36
103 37
101 36
100 35
99 34
99 32
103 29
108 29
110 28
108 25
108 23
108 22
108 21
107 20
107 19
106 21
106 23
105 23
104 23
105 26
102 25
100 24
102 23
101 22
100 21
98 21
99 20
99 19
100 18
101 17
100 16
100 14
100 13
101 12
101 11
100 10
101 9
101 8
99 8
99 9
98 10
99 11
99 12
98 13
99 15
98 16
99 17
98 18
97 20
97 19
97 17
96 16
97 15
97 14
96 13
95 12
97 12
97 11
96 10
97 9
96 8
97 7
98 6
99 7
100 6
101 6
102 6
104 5
103 4
101 4
99 4
98 5
96 4
95 5
96 6
95 7
94 8
95 9
95 11
93 9
92 8
93 7
93 6
93 5
91 4
89 4
87 4
87 5
87 6
87 7
87 9
85 8
85 7
85 6
85 5
85 4
85 2
84 3
82 4
82 3
82 2
80 3
79 4
80 5
81 6
83 5
83 6
83 7
81 7
80 8
83 8
83 9
82 10
83 12
84 11
84 10
85 9
86 10
86 11
86 12
84 13
85 14
85 15
86 16
87 14
86 13
88 13
88 11
88 10
89 9
88 8
90 7
89 6
90 5
91 6
90 8
91 9
93 10
93 11
93 12
94 13
95 14
95 15
94 16
95 17
96 18
95 19
95 20
96 21
97 22
99 23
99 24
98 24
97 26
94 28
93 25
94 24
96 24
96 23
95 22
94 21
93 20
92 21
91 22
93 23
92 24
91 25
89 27
91 30
90 32
93 33
94 34
96 32
97 33
97 35
98 36
97 37
97 38
95 37
95 35
94 36
94 38
95 39
96 40
98 40
99 38
101 38
101 39
102 41
104 43
101 42
100 40
99 42
99 45
97 42
95 43
94 42
92 43
91 42
93 40
92 39
92 38
91 37
92 36
91 34
90 35
89 34
87 33
87 31
86 28
84 26
84 28
83 28
84 30
85 31
85 32
83 31
83 32
83 33
83 34
85 34
86 35
86 37
87 38
88 36
89 37
89 39
90 40
89 41
89 43
90 44
92 49
94 49
101 56
102 49
103 47
105 46
107 46
110 51
118 53
120 52
121 53
122 54
123 52
118 51
119 50
120 49
122 50
124 51
126 51
128 51
130 51
131 52
129 53
127 53
127 54
125 53
124 54
125 55
126 56
128 57
128 55
130 55
131 56
132 57
131 54
133 53
133 55
134 56
136 57
136 55
135 54
133 51
135 52
137 51
137 53
138 54
138 56
140 52
142 53
140 54
141 55
140 56
142 57
144 58
146 58
145 60
143 60
144 62
145 63
144 65
142 64
143 67
137 78
135 78
133 79
131 77
130 80
128 80
130 82
132 81
135 81
133 83
134 85
133 88
132 89
131 92
132 94
132 96
133 97
134 98
136 99
136 101
134 101
132 101
132 102
133 102
133 103
132 104
132 105
131 106
131 107
133 107
134 108
134 109
135 110
135 112
133 112
133 111
131 112
131 113
129 113
127 114
128 116
129 117
128 119
126 118
126 116
124 116
123 118
124 120
122 121
119 122
119 120
121 119
121 117
122 116
123 114
121 114
119 114
117 115
119 116
119 118
117 117
117 119
117 121
117 123
115 125
115 123
113 123
113 125
111 125
109 124
107 124
106 123
104 125
103 124
101 124
99 124
100 122
102 122
104 122
104 120
104 118
102 118
102 120
100 120
99 119
99 117
97 118
97 116
95 116
95 114
94 112
92 112
92 110
91 109
89 109
89 111
90 112
90 114
88 113
87 111
86 109
87 108
86 107
89 106
90 107
92 107
94 106
94 108
94 110
96 110
98 111
97 112
97 114
99 113
99 115
101 116
101 114
102 113
104 112
104 114
103 116
105 116
106 117
108 115
109 116
108 118
106 119
106 121
108 120
108 122
110 122
111 123
113 121
115 121
115 119
114 118
115 116
117 113
119 112
119 110
117 111
117 109
116 108
117 106
119 105
119 107
120 108
122 108
122 106
124 107
124 109
121 110
122 112
123 111
125 112
125 114
127 112
128 110
130 111
130 110
132 110
132 109
131 108
129 108
126 110
126 108
126 106
128 107
130 105
128 104
126 104
124 105
124 103
122 104
120 104
118 103
116 104
114 103
114 101
112 102
111 103
112 105
114 105
114 107
115 110
115 112
115 114
113 116
112 118
112 120
110 120
110 118
111 116
111 114
110 113
108 113
106 114
106 112
105 110
107 110
109 111
111 111
113 114
113 112
113 110
113 108
111 109
111 107
109 108
109 106
110 104
109 102
107 102
106 101
105 100
106 98
108 99
109 100
111 100
111 98
113 99
113 97
110 96
109 97
107 96
108 94
110 94
112 95
112 93
114 92
114 94
116 93
116 91
118 91
119 89
121 89
120 91
119 93
120 94
117 95
115 96
115 98
116 100
116 102
118 101
120 101
119 99
117 98
118 96
120 96
120 98
122 98
122 100
122 102
124 101
124 99
123 96
122 94
124 93
122 92
123 90
125 90
126 88
127 90
125 92
127 93
127 95
125 95
125 97
126 98
126 100
127 102
129 102
130 103
130 100
131 99
128 99
128 97
130 97
130 95
129 93
129 91
130 90
130 88
128 88
128 86
132 86
131 84
130 85
128 84
127 82
126 84
124 84
125 86
123 86
123 88
120 87
117 88
118 86
121 86
121 84
123 82
125 81
121 82
119 84
117 83
116 85
114 84
113 86
113 88
115 87
115 89
113 90
111 91
110 92
110 89
111 88
109 86
111 85
109 81
106 87
108 88
108 90
106 90
107 92
106 93
104 94
103 95
105 96
103 97
103 99
101 98
100 100
102 101
103 102
101 103
103 104
105 103
105 105
107 104
107 106
107 108
104 109
105 107
103 106
102 108
102 111
100 111
101 109
100 107
101 105
99 104
98 105
98 107
98 109
96 108
96 106
94 104
92 103
92 105
90 104
88 103
86 103
87 105
85 105
84 106
85 101
87 101
90 102
93 101
95 102
96 104
97 102
99 102
96 100
98 100
99 98
98 96
99 94
101 96
101 94
100 92
102 92
104 92
104 90
104 88
102 88
101 90
99 89
96 90
94 90
92 91
93 96
88 98
86 99
86 97
88 96
88 94
88 92
86 94
85 92
87 90
84 90
84 88
82 86
81 83
78 81
75 76
67 70
70 70
77 67
78 70
79 72
80 74
81 69
83 72
84 73
86 72
94 76
95 78
95 80
96 82
97 85
98 83
97 79
101 82
104 81
108 78
110 79
112 80
112 77
109 76
102 76
100 71
97 73
96 75
94 74
94 72
93 70
92 68
91 65
92 66
93 67
94 66
94 64
95 67
96 68
97 67
98 69
100 66
103 66
107 66
109 63
112 63
112 61
111 58
109 56
107 58
104 61
102 62
98 60
93 61
92 64
91 63
91 61
94 58
92 57
90 57
85 56
81 52
79 51
78 51
78 50
80 48
78 47
79 46
79 45
82 46
81 42
84 42
85 44
86 46
88 46
87 43
86 42
87 40
85 40
84 39
84 38
83 37
85 36
84 35
82 35
81 36
82 37
81 39
79 41
78 38
76 39
77 41
78 43
77 44
76 43
75 42
75 41
75 40
74 39
73 39
72 38
71 36
70 38
72 40
71 41
71 43
72 45
72 44
73 42
73 43
74 44
75 45
73 46
72 47
70 45
69 46
68 45
69 44
68 43
68 41
68 39
67 37
64 36
65 34
68 34
70 33
70 32
71 31
70 30
68 31
68 32
66 31
65 30
66 27
67 29
69 29
71 28
73 29
72 30
73 31
73 33
76 31
76 29
77 30
78 31
79 29
82 30
82 29
81 28
78 28
75 28
71 17
71 15
72 14
74 15
81 18
82 17
84 18
84 20
83 19
81 20
82 21
81 23
81 25
81 26
82 27
83 25
83 23
85 22
86 21
87 22
86 25
87 25
89 25
89 24
90 23
88 23
88 21
87 20
88 19
89 19
89 20
89 22
90 21
91 20
91 19
90 18
89 17
89 15
90 16
91 17
92 16
93 17
92 18
93 19
94 18
93 15
93 14
92 13
91 14
91 15
90 13
91 12
91 11
90 10
89 12
89 14
87 15
88 16
87 17
88 18
86 19
86 18
85 17
84 16
83 15
81 14
79 15
78 13
79 12
76 11
78 10
78 6
77 4
77 2
79 2
80 1
78 1
76 1
74 1
72 0
71 1
69 2
68 0
66 1
64 3
65 6
65 8
63 9
62 8
61 9
60 10
60 12
61 13
61 11
62 11
64 10
64 11
66 11
66 10
67 9
67 12
68 11
69 9
70 8
68 7
66 7
71 4
73 2
75 3
76 5
73 7
73 9
75 9
74 11
72 12
72 10
70 10
71 11
70 13
69 12
68 14
69 15
69 16
67 16
67 17
68 19
66 24
63 24
64 26
62 26
62 28
64 29
63 31
61 30
59 29
59 27
58 26
58 25
60 26
60 25
61 24
63 23
63 22
64 21
66 20
64 19
63 20
63 18
64 17
65 16
66 15
66 13
65 12
63 12
63 13
64 14
63 15
61 14
61 15
61 16
62 17
61 18
61 19
61 21
59 21
59 20
59 19
59 18
59 17
59 16
59 15
59 14
57 12
57 11
59 11
58 10
59 9
60 7
62 6
62 4
60 2
60 5
58 6
56 7
57 8
56 9
56 10
55 11
54 12
56 13
57 14
57 15
57 16
57 17
57 18
57 19
57 20
57 21
56 21
56 22
56 23
57 23
58 22
60 22
61 23
59 23
59 24
57 24
56 25
56 26
56 27
57 27
58 28
56 28
57 29
58 30
60 32
62 33
61 35
60 37
62 38
64 39
64 42
66 41
66 43
65 44
64 45
66 45
67 46
66 47
65 48
64 47
64 46
62 45
62 47
62 48
62 49
64 49
64 50
66 50
67 51
68 50
68 48
70 47
70 48
72 50
70 50
69 52
70 54
71 55
71 53
73 53
73 51
75 49
76 47
75 51
74 54
76 54
78 53
78 55
80 55
81 56
78 61
76 62
75 60
70 61
67 61
65 60
63 60
62 60
65 57
64 55
66 55
67 56
68 54
67 53
65 52
63 53
63 51
62 52
62 54
61 55
60 56
60 54
60 52
59 51
57 52
58 53
58 55
55 54
54 52
56 51
55 50
53 50
53 48
52 49
50 49
49 48
48 47
50 47
51 46
52 47
55 48
57 47
58 48
58 49
61 50
60 48
59 47
60 46
60 45
60 44
62 44
63 43
63 41
62 40
60 40
60 41
61 42
61 43
58 44
58 45
56 44
56 45
56 46
54 46
54 45
54 44
55 43
56 42
57 43
59 43
59 42
59 39
58 38
57 37
57 36
59 36
59 34
57 33
56 34
56 35
55 37
55 38
56 39
58 40
57 41
56 40
55 41
54 42
54 43
52 44
52 45
50 45
50 44
49 43
48 42
47 43
46 42
47 41
46 40
45 41
45 43
44 42
43 42
43 43
42 44
43 45
44 44
45 45
46 45
46 44
48 44
48 45
49 46
47 46
46 47
44 46
44 47
43 48
44 49
45 50
45 49
46 48
47 49
48 50
47 52
49 52
50 51
52 52
51 54
49 54
47 54
47 55
46 56
45 57
44 58
44 59
45 60
45 61
44 62
43 60
41 59
42 58
43 57
43 56
44 55
43 54
43 52
44 53
45 54
46 53
46 51
45 52
44 51
43 50
42 49
41 50
41 51
42 51
42 53
41 54
40 55
42 55
41 56
39 56
37 56
35 58
33 58
32 57
29 54
29 53
29 52
27 51
26 49
25 50
24 52
24 53
25 55
27 53
28 55
28 57
24 56
22 56
22 57
24 58
23 59
21 59
20 58
20 56
19 55
18 54
20 53
21 54
23 54
22 52
23 50
22 49
24 48
25 47
25 45
23 47
23 46
23 45
22 44
22 43
20 44
21 46
20 47
21 48
21 50
20 51
19 52
17 53
16 52
17 51
17 50
19 50
19 49
18 48
19 46
19 45
18 44
19 43
19 42
19 41
18 40
17 41
16 42
17 43
16 45
17 46
17 47
16 48
15 47
14 46
14 45
15 44
15 43
15 41
13 41
12 40
13 39
14 40
16 40
17 39
15 39
15 38
16 37
16 36
15 35
16 34
17 33
17 35
18 38
18 37
18 36
19 34
18 32
18 29
20 28
20 26
19 27
17 27
17 28
17 30
16 32
15 31
15 29
15 27
14 28
13 30
13 32
13 33
14 34
12 34
13 35
14 37
13 37
12 37
11 36
10 35
8 35
8 36
8 37
6 35
5 34
7 34
6 33
6 31
6 29
4 28
4 30
4 33
4 36
5 37
6 37
7 38
7 39
9 38
10 37
11 38
11 39
10 40
9 39
8 40
8 42
7 43
8 44
9 45
9 46
7 46
7 47
8 48
7 49
5 49
4 50
5 51
4 52
5 53
7 54
8 53
7 52
7 51
9 51
9 52
11 51
12 52
13 51
12 50
11 49
9 49
10 48
10 47
11 45
11 44
11 43
9 43
10 42
9 41
11 41
13 42
13 43
13 44
12 46
12 47
13 48
14 49
15 50
15 51
14 53
15 54
13 54
12 55
11 54
10 53
9 55
10 56
12 57
13 56
15 56
16 55
17 56
18 57
18 59
19 60
20 61
22 61
24 61
25 63
23 63
24 64
23 66
22 65
21 64
21 62
20 63
19 65
20 66
19 67
21 68
23 68
24 69
23 70
21 70
20 69
17 68
18 69
18 71
20 72
18 73
17 72
17 70
15 69
17 66
18 64
18 62
17 63
16 65
15 67
14 68
12 69
11 70
13 70
14 71
12 72
11 73
12 75
13 74
14 73
15 72
16 74
15 75
17 76
18 75
19 74
21 73
22 72
22 74
23 75
22 76
20 76
19 78
21 78
22 79
27 78
27 82
26 86
22 81
20 80
18 79
17 78
17 80
16 82
15 80
15 78
14 77
12 77
12 79
13 80
13 82
14 83
16 84
18 82
19 81
20 83
21 84
19 85
17 85
17 87
15 89
15 86
13 85
13 87
12 89
11 86
11 84
10 83
10 81
9 80
8 82
6 83
6 85
8 84
9 86
8 88
6 88
9 90
13 92
11 92
8 92
6 92
4 91
4 86
3 85
3 83
3 81
5 81
6 80
5 79
7 79
6 77
6 74
7 75
8 76
8 78
10 78
10 76
10 74
9 73
7 73
6 72
7 70
8 71
10 71
9 69
7 68
8 67
7 66
7 64
9 63
8 62
6 63
6 65
4 65
3 66
4 67
5 68
5 70
4 72
3 71
3 69
2 68
1 66
3 64
4 63
6 61
5 59
7 60
8 59
9 60
10 61
11 62
13 62
12 63
10 64
9 65
10 66
10 68
12 67
12 65
13 66
14 65
15 64
14 63
16 62
15 61
14 60
17 60
17 58
15 58
15 59
13 58
12 60
11 59
10 58
9 57
7 57
6 58
6 55
5 56
4 58
4 60
3 61
2 62
2 60
1 59
2 58
1 57
3 56
2 55
4 54
2 53
2 51
3 49
2 49
1 48
3 47
2 46
4 45
4 46
5 47
6 45
6 44
5 43
3 44
3 43
3 42
4 41
6 42
6 41
6 40
5 39
4 40
4 38
3 37
3 39
2 38
1 37
3 35
2 34
3 32
2 29
3 27
2 26
2 25
3 24
4 24
5 23
4 22
3 23
3 21
4 21
5 21
4 20
3 19
4 18
5 19
6 19
7 19
6 20
6 22
7 21
8 20
8 21
9 22
8 22
8 23
6 23
6 24
6 25
4 25
4 26
5 27
6 26
7 25
8 24
9 24
10 23
11 24
11 25
9 25
10 26
9 27
8 26
7 27
8 29
8 30
8 32
9 33
10 34
11 32
10 31
10 29
12 29
11 27
13 27
14 26
16 26
16 25
18 26
18 25
19 25
20 24
21 25
21 27
22 28
24 28
23 27
23 26
22 25
22 24
21 23
21 22
20 22
20 21
22 21
23 21
23 22
23 23
24 23
24 24
24 25
25 26
26 25
27 24
28 25
28 23
29 22
29 23
29 24
30 25
29 26
29 27
30 28
31 26
31 27
32 29
31 30
32 32
30 32
28 31
29 30
27 27
27 26
25 27
26 28
27 29
26 30
25 32
27 32
28 33
27 34
30 35
30 34
32 34
34 32
34 34
36 35
35 36
36 37
37 38
37 39
38 40
38 41
36 41
36 42
35 44
34 44
34 45
34 46
34 47
36 46
36 47
35 48
36 49
35 50
33 50
33 49
33 48
32 47
32 46
32 44
31 43
34 42
35 40
33 40
34 38
33 36
32 37
31 36
30 38
29 37
28 38
28 40
27 39
26 40
25 39
25 38
25 37
27 37
28 36
28 35
26 36
24 36
25 35
25 34
24 33
23 34
22 33
21 32
23 31
24 30
22 30
20 30
19 31
20 33
20 35
20 36
20 37
22 35
22 36
22 37
23 38
23 39
24 40
22 41
22 40
21 39
21 38
19 39
20 40
21 42
23 42
25 41
25 42
24 43
25 44
27 43
27 42
29 42
27 45
29 45
31 45
30 46
28 47
30 48
31 49
29 49
29 51
31 51
31 53
32 55
33 56
35 56
35 55
34 54
33 53
33 52
35 52
35 53
37 54
38 55
38 54
37 53
37 52
36 51
38 51
39 52
40 53
41 52
40 51
40 49
39 50
38 49
37 50
37 48
39 48
38 47
38 46
37 45
37 44
37 43
38 42
39 42
39 43
39 44
39 45
40 46
40 47
41 48
42 47
42 46
41 45
41 44
41 43
41 42
41 41
40 41
40 40
39 39
38 36
39 36
39 37
40 38
41 39
42 40
43 41
43 40
44 40
45 39
43 39
42 38
42 37
41 36
41 35
41 34
41 33
42 31
41 30
41 29
41 27
40 26
39 25
39 24
37 24
37 23
38 21
37 20
37 19
36 18
37 18
39 18
39 17
39 15
38 16
37 15
38 14
38 13
41 12
41 14
40 14
40 16
41 17
40 19
39 20
40 22
41 20
43 20
43 22
42 23
41 24
42 25
43 26
43 27
43 28
43 29
43 30
44 31
43 32
43 33
44 34
43 35
43 36
45 35
45 36
44 37
44 38
45 38
46 37
46 39
47 38
47 37
47 36
48 37
49 36
48 35
47 35
46 34
45 33
45 32
46 32
45 30
45 29
45 27
45 26
45 25
44 24
45 23
46 24
47 25
48 24
49 25
49 23
50 24
52 25
52 26
52 27
52 28
51 29
52 30
52 31
50 33
50 32
50 31
50 30
49 29
50 28
51 27
50 26
49 26
49 27
48 28
47 26
47 27
46 28
47 29
47 30
47 31
49 31
48 32
47 33
48 34
49 33
50 34
50 35
51 34
52 33
52 32
53 31
55 31
54 32
53 33
53 34
52 35
52 36
51 36
50 36
50 37
51 39
51 38
52 37
52 38
53 38
53 39
52 40
52 41
51 40
50 39
49 38
48 39
48 40
49 40
49 41
50 41
50 42
51 43
52 43
52 42
53 41
54 40
54 39
54 37
54 36
54 35
54 34
55 33
55 32
57 32
57 31
56 30
55 30
55 29
54 30
53 29
54 28
54 27
54 26
54 25
55 24
54 24
54 23
54 22
53 23
52 24
51 24
51 23
50 22
50 21
52 22
52 21
51 20
51 19
51 18
51 17
50 15
51 14
52 15
53 16
53 17
53 18
53 19
53 20
54 21
55 20
55 19
55 18
55 17
55 16
55 15
54 14
53 13
53 11
52 10
51 9
49 10
50 8
48 7
47 10
46 12
45 14
47 14
48 12
50 11
50 12
49 13
48 15
49 16
48 17
49 18
49 19
49 20
48 21
48 22
47 23
45 22
45 20
46 21
47 20
46 19
47 18
46 16
45 17
44 18
42 18
41 15
44 16
43 15
43 13
44 12
43 11
44 10
44 9
45 8
46 7
46 6
44 7
44 6
42 6
42 7
40 6
40 7
40 8
40 9
42 8
42 9
41 10
41 11
39 10
39 11
39 12
37 12
37 11
37 10
36 10
35 11
35 12
36 13
36 14
36 15
36 16
37 17
35 17
35 19
35 20
36 21
36 22
35 23
35 24
36 25
34 25
35 26
36 27
38 27
39 28
38 30
39 31
40 32
39 34
38 33
36 33
36 31
36 29
34 30
34 28
33 27
33 26
32 25
31 24
31 23
31 22
31 21
32 22
33 23
33 24
34 22
34 21
33 21
33 20
32 20
33 19
34 18
33 17
34 16
34 15
34 14
33 14
34 13
33 12
32 13
31 14
30 13
31 12
31 11
30 10
30 9
32 9
32 10
33 11
34 10
34 9
34 8
34 7
32 8
32 7
32 6
34 6
36 6
36 7
36 8
36 9
38 9
38 8
38 7
38 6
39 5
39 4
41 5
43 5
43 4
45 3
47 4
49 5
52 4
52 6
53 8
54 9
54 6
55 4
58 4
56 2
53 1
51 1
50 3
49 2
49 0
47 2
46 1
44 0
41 0
41 2
42 1
43 2
42 3
41 4
39 3
39 2
38 1
37 3
37 4
37 5
35 3
36 2
36 1
35 0
33 1
34 2
35 4
35 5
33 5
33 4
32 3
32 2
32 0
30 0
30 2
29 1
27 0
26 1
27 2
27 3
27 4
27 5
28 6
29 3
30 4
31 5
30 6
29 7
30 8
29 8
28 9
28 10
29 11
29 12
29 13
30 15
32 15
32 16
31 16
31 17
32 18
31 19
30 20
29 21
28 21
28 20
28 19
28 18
30 19
30 18
29 17
29 16
28 14
28 15
27 16
27 17
27 18
26 19
27 20
26 21
27 22
26 23
26 24
25 22
25 21
25 20
24 20
23 19
22 20
20 20
20 19
19 18
18 17
18 16
17 16
17 15
19 15
20 16
20 17
21 18
21 19
22 17
23 17
23 18
24 19
25 18
25 17
25 16
24 16
23 15
22 16
21 15
21 14
20 14
20 13
21 12
21 11
22 11
22 10
24 10
24 11
25 11
25 12
25 13
24 13
23 12
22 13
23 14
24 15
25 14
26 15
27 14
27 13
27 12
27 11
26 10
26 9
27 8
26 8
26 7
25 6
23 6
24 7
24 8
24 9
22 9
22 8
22 7
20 7
19 6
20 5
22 5
23 4
25 4
25 3
24 1
23 1
21 0
21 2
23 3
21 3
19 4
19 3
19 1
18 0
17 2
17 5
16 4
16 3
16 1
16 0
14 1
14 2
13 3
14 4
14 5
15 6
15 7
16 8
17 7
17 6
18 8
20 8
20 9
20 10
19 11
19 12
18 13
18 14
17 12
17 11
18 10
17 9
15 9
14 10
16 11
16 13
16 14
15 15
14 14
14 13
15 12
14 12
13 11
12 12
12 10
12 9
14 8
12 8
12 7
13 6
12 5
11 3
12 2
13 0
11 1
10 2
10 0
9 1
9 3
9 4
10 5
11 6
8 6
9 7
9 8
10 9
10 10
11 11
9 11
8 12
7 11
8 10
7 9
6 10
4 9
3 8
5 7
6 8
7 5
6 4
7 3
7 2
7 1
6 0
5 1
5 2
5 5
3 6
4 4
4 3
2 3
1 2
3 1
3 0
1 0